100
3655
86 69
23 188
69 73
16 21
90 133
89 197
2 149
39 107
100 115
3 173
27 70
54 56
22 164
27 54
98 26
67 120
29 166
40 170
45 69
48 191
66 150
22 184
81 165
63 96
43 130
97 168
62 68
1 78
20 35
82 171
70 83
52 52
33 80
97 52
74 28
93 188
42 158
53 27
83 81
22 182
10 103
82 63
91 160
76 85
42 111
72 153
7 63
23 96
88 22
38 63
64 111
19 164
60 54
94 188
72 112
1 193
48 10
92 33
50 169
58 174
41 96
63 54
33 135
77 156
82 140
11 81
100 161
12 101
97 93
33 80
17 123
92 69
35 177
68 186
90 33
48 102
31 172
45 154
13 129
77 182
20 42
50 150
13 185
17 170
53 194
25 26
95 109
11 166
75 67
26 81
10 71
95 147
31 116
48 67
1 138
90 73
64 26
97 65
23 146
96 105
